20
18	189	156	81	29
34	322	28	83	32
33	24	184	40	77
5	518	136	1	100
22	40	165	42	57
30	154	36	24	43
14	41	212	79	48
18	337	13	12	30
30	475	301	42	22
33	113	33	52	52
12	160	0	76	99
25	176	133	6	68
45	339	144	26	91
49	517	270	67	56
35	428	242	91	56
41	465	252	99	67
31	107	305	66	48
45	3	50	97	72
4	410	266	4	68
38	90	191	28	10
